(set-logic ALL)
(declare-const BAV1 Bool)
(declare-const BAV2 Bool)
(declare-const BAV3 Bool)
(declare-const BAV4 Bool)
(declare-const BAV5 Bool)
(declare-const BAV6 Bool)
(declare-fun a () Real)
(declare-fun b () Real)
(declare-fun f (Real) Real)
(declare-fun g (Real) Real)
(assert (= (f (g (f (f a)))) (f (g (f a)))))
(assert (= (f a) b))
(assert (= (f b) a))
(assert (not (= a b)))
(assert (= (g a) (f a)))
(assert (= (g b) (f b)))
(assert (= BAV1 (= (f (g (f (f a)))) (f (g (f a))))))
(assert (= BAV2 (= (f a) b)))
(assert (= BAV3 (= (f b) a)))
(assert (= BAV4 (= a b)))
(assert (= BAV5 (= (g a) (f a))))
(assert (= BAV6 (= (g b) (f b))))
(check-sat)
(get-model)
(exit)